
Gurobi 9.5.0 (win64) logging started Sat May 14 14:51:16 2022

Set parameter LogFile to value "../results/logs/log_soc-dolphins_3_1_2022_05_14_14_51.log"
Set parameter LazyConstraints to value 1

Gurobi 9.5.0 (win64) logging started Sat May 14 14:51:27 2022

Set parameter LogFile to value "../results/logs/log_soc-dolphins_3_1_2022_05_14_14_51.log"
Set parameter LazyConstraints to value 1

Gurobi 9.5.0 (win64) logging started Sat May 14 14:51:52 2022

Set parameter LogFile to value "../results/logs/log_soc-dolphins_3_1_2022_05_14_14_51.log"
Set parameter LazyConstraints to value 1
